c User generated cnf file
p cnf 15 43
4 -4 12 0 
11 -8 1 0 
7 1 -14 0 
8 7 -4 0 
10 -6 13 0 
11 -13 13 0 
15 -13 13 0 
10 3 -4 0 
6 -2 8 0 
2 13 -8 0 
6 -5 6 0 
7 -13 9 0 
12 4 -7 0 
13 -15 9 0 
9 -12 13 0 
1 7 -13 0 
4 3 -1 0 
1 -15 2 0 
11 -12 12 0 
11 -6 14 0 
14 12 -9 0 
5 4 -10 0 
4 -8 7 0 
12 -3 15 0 
11 5 -1 0 
6 -10 12 0 
14 -8 14 0 
12 11 -6 0 
6 -5 5 0 
9 -1 12 0 
4 7 -5 0 
7 -6 8 0 
8 12 -6 0 
11 9 -13 0 
1 14 -7 0 
9 -6 15 0 
1 2 -15 0 
14 -1 12 0 
7 15 -10 0 
10 -5 8 0 
3 8 -2 0 
7 -10 8 0 
3 -2 12 0 
